<instance format="XCSP3" type="CSP">
  <variables>
    <var id="x0"> 11 12 15 </var>
    <var id="x1"> 1 4 8 </var>
    <var id="x2"> 1 12 15 </var>
    <var id="x3"> 1 9 11 15 </var>
    <var id="x4"> 8 11 12 </var>
    <var id="x5"> 0 8 12 </var>
    <var id="x6"> 0 1 4 9 </var>
    <var id="x7"> 0 1 4 11 </var>
    <var id="x8"> 2 14 </var>
    <var id="x9"> 2 7 13 </var>
    <var id="x10"> 6 9 14 </var>
    <var id="x11"> 6 7 11 </var>
    <var id="x12"> 2 7 11 14 17 </var>
    <var id="x13"> 6 7 9 13 17 </var>
    <var id="x14"> 7 11 13 </var>
    <var id="x15"> 6 7 13 </var>
    <var id="x16"> 0 10 12 </var>
    <var id="x17"> 5 </var>
    <var id="x18"> 0 12 13 17 </var>
    <var id="x19"> 3 5 8 12 13 </var>
    <var id="x20"> 0 3 8 12 13 </var>
    <var id="x21"> 0 3 10 17 </var>
    <var id="x22"> 0 10 12 13 17 </var>
    <var id="x23"> 0 10 17 </var>
    <var id="x24"> 10 13 </var>
    <var id="x25"> 3 10 12 14 </var>
    <var id="x26"> 10 12 16 </var>
    <var id="x27"> 0 3 12 14 16 </var>
    <var id="x28"> 7 14 </var>
    <var id="x29"> 0 7 12 13 </var>
    <var id="x30"> 0 3 7 12 13 </var>
    <var id="x31"> 0 10 12 13 16 </var>
    <var id="x32"> 1 10 14 17 </var>
    <var id="x33"> 1 2 10 12 14 </var>
    <var id="x34"> 1 2 14 </var>
    <var id="x35"> 10 12 17 </var>
    <var id="x36"> 1 2 11 14 17 </var>
    <var id="x37"> 1 9 11 14 </var>
    <var id="x38"> 11 12 </var>
    <var id="x39"> 2 9 10 12 17 </var>
    <var id="x40"> 1 5 9 13 15 17 </var>
    <var id="x41"> 1 5 13 15 </var>
    <var id="x42"> 4 6 13 17 </var>
    <var id="x43"> 1 4..6 15 </var>
    <var id="x44"> 6 15 </var>
    <var id="x45"> 1 5 17 </var>
    <var id="x46"> 1 4 9 17 </var>
    <var id="x47"> 1 4 6 17 </var>
    <var id="x48"> 1 7 8 10 13 </var>
    <var as="x48" id="x49"/>
    <var id="x50"> 1 7 </var>
    <var id="x51"> 0 1 16 </var>
    <var id="x52"> 0 7 10 11 </var>
    <var id="x53"> 1 7 8 11 </var>
    <var id="x54"> 0 10 13 16 </var>
    <var id="x55"> 0 1 7 10 11 </var>
    <var id="x56"> 5 10 12 15 </var>
    <var id="x57"> 1 5 10 15 17 </var>
    <var id="x58"> 1 8 10 17 </var>
    <var id="x59"> 1 5 8 10 15 </var>
    <var id="x60"> 6 12 17 </var>
    <var id="x61"> 1 5 8 17 </var>
    <var id="x62"> 10 12 17 </var>
    <var id="x63"> 1 6 10 17 </var>
    <var id="x64"> 5 9 11 15 </var>
    <var id="x65"> 4 7 </var>
    <var id="x66"> 4..7 15 </var>
    <var id="x67"> 6 9 </var>
    <var id="x68"> 5 7 9 11 15 </var>
    <var id="x69"> 6 7 9 15 </var>
    <var id="x70"> 5 7 11 </var>
    <var id="x71"> 10 12 15 </var>
    <var id="x72"> 1 10 15 17 </var>
    <var id="x73"> 1 7 10 17 </var>
    <var id="x74"> 1 7 10 15 </var>
    <var id="x75"> 6 12 17 </var>
    <var id="x76"> 6 10 12 15..17 </var>
    <var id="x77"> 6 7 10 12 15 </var>
    <var id="x78"> 7 12 16 </var>
    <var id="x79"> 2 10..13 15 </var>
    <var id="x80"> 1 2 15 </var>
    <var id="x81"> 10 12 15 16 </var>
    <var id="x82"> 1 12 16 </var>
    <var id="x83"> 10..12 15 </var>
    <var id="x84"> 12 13 15 </var>
    <var id="x85"> 12 13 </var>
    <var id="x86"> 1 10 11 </var>
    <var id="x87"> 4 7 8 13 </var>
    <var id="x88"> 3 5 </var>
    <var id="x89"> 6 7 13 </var>
    <var id="x90"> 3 6..8 13 </var>
    <var id="x91"> 3 4 7 </var>
    <var id="x92"> 13 </var>
    <var id="x93"> 4 6 7 </var>
    <var id="x94"> 1..3 10 </var>
    <var id="x95"> 10 17 </var>
    <var id="x96"> 0 1 3 9 </var>
    <var id="x97"> 1 2 7 17 </var>
    <var id="x98"> 0 7 9 17 </var>
    <var id="x99"> 3 7 </var>
    <var id="x100"> 0 2 9 10 17 </var>
    <var id="x101"> 0 1 7 10 17 </var>
    <var id="x102"> 1 5 15 </var>
    <var id="x103"> 1 14 </var>
    <var id="x104"> 1 2 5 15 </var>
    <var id="x105"> 6 12 </var>
    <var id="x106"> 6 12 15 16 </var>
    <var id="x107"> 1 5 14..16 </var>
    <var id="x108"> 5 12 16 </var>
    <var id="x109"> 1 </var>
    <var id="x110"> 13 15 17 </var>
    <var id="x111"> 3 12 15 </var>
    <var id="x112"> 3 6 12 13 17 </var>
    <var id="x113"> 6 7 15 </var>
    <var id="x114"> 6 8 12 15 17 </var>
    <var id="x115"> 3 6 12 </var>
    <var id="x116"> 3 6..8 12 13 </var>
    <var id="x117"> 3 7 17 </var>
    <var id="x118"> 5 10 12 </var>
    <var id="x119"> 5 10 17 </var>
    <var id="x120"> 5 7 10 </var>
    <var id="x121"> 0 4 12 17 </var>
    <var id="x122"> 4 5 7 14 </var>
    <var id="x123"> 5 7 14 17 </var>
    <var id="x124"> 5 7 14 </var>
    <var id="x125"> 0 7 12 17 </var>
    <var id="x126"> 10 11 13 </var>
    <var id="x127"> 1 10 14 </var>
    <var id="x128"> 1 7 10 13 </var>
    <var id="x129"> 0 4 11 13 </var>
    <var id="x130"> 4 10 </var>
    <var id="x131"> 0 1 14 </var>
    <var id="x132"> 1 7 11 14 </var>
    <var id="x133"> 0 1 4 7 10 </var>
    <var id="x134"> 2 5 11 15 </var>
    <var id="x135"> 0 3 11 </var>
    <var id="x136"> 2 5 7 15 </var>
    <var id="x137"> 0 7 11 15 </var>
    <var id="x138"> 5 7 11 15 </var>
    <var id="x139"> 0 3 7 </var>
    <var id="x140"> 0 2 </var>
  </variables>
  <constraints>
    <group>
      <allDifferent> %... </allDifferent>
      <args> x0 x1 x2 x3 x4 x5 x6 x7 </args>
      <args> x8 x9 x10 x11 x12 x13 x14 x15 </args>
      <args> x16 x17 x18 x19 x20 x21 x22 x23 </args>
      <args> x24 x25 x26 x27 x28 x29 x30 x31 </args>
      <args> x32 x33 x34 x35 x36 x37 x38 x39 </args>
      <args> x40 x41 x42 x43 x44 x45 x46 x47 </args>
      <args> x48 x49 x50 x51 x52 x53 x54 x55 </args>
      <args> x56 x57 x58 x59 x60 x61 x62 x63 </args>
      <args> x64 x65 x66 x67 x68 x69 x70 </args>
      <args> x71 x72 x73 x74 x75 x76 x77 x78 </args>
      <args> x79 x80 x81 x82 x83 x84 x85 x86 </args>
      <args> x87 x88 x89 x90 x91 x92 x93 </args>
      <args> x94 x95 x96 x97 x98 x99 x100 x101 </args>
      <args> x102 x103 x104 x105 x106 x107 x108 x109 </args>
      <args> x110 x111 x112 x113 x114 x115 x116 x117 </args>
      <args> x118 x119 x120 x121 x122 x123 x124 x125 </args>
      <args> x126 x127 x128 x129 x130 x131 x132 x133 </args>
      <args> x134 x135 x136 x137 x138 x139 x140 </args>
      <args> x0 x56 x71 x79 x118 x126 x134 </args>
      <args> x24 x40 x57 x64 x72 x102 x110 x119 </args>
      <args> x1 x32 x48 x58 x65 x73 x87 x103 </args>
      <args> x2 x8 x25 x33 x88 x94 x111 x127 </args>
      <args> x9 x41 x49 x59 x74 x104 x120 x128 </args>
      <args> x42 x60 x75 x105 x112 x121 x129 x135 </args>
      <args> x34 x43 x50 x66 x80 x113 x122 x136 </args>
      <args> x26 x35 x76 x81 x95 x106 x114 x130 </args>
      <args> x10 x27 x51 x67 x82 x96 x115 x131 </args>
      <args> x11 x16 x44 x52 x77 x83 x137 </args>
      <args> x12 x28 x36 x45 x53 x61 x97 x123 </args>
      <args> x3 x17 x37 x68 x107 x124 x132 x138 </args>
      <args> x13 x18 x29 x69 x84 x89 x98 x125 </args>
      <args> x4 x14 x19 x38 x70 x78 x99 x108 </args>
      <args> x5 x15 x20 x30 x85 x90 x116 </args>
      <args> x6 x21 x46 x91 x109 x117 x133 x139 </args>
      <args> x22 x31 x39 x54 x62 x92 x100 x140 </args>
      <args> x7 x23 x47 x55 x63 x86 x93 x101 </args>
    </group>
  </constraints>
</instance>

